(set-logic QF_LIRA)
(declare-fun v!23 () Int)
(declare-fun t!19 () Real)
(declare-fun t!18 () Real)
(declare-fun t!20 () Real)
(declare-fun t!21 () Real)
(declare-fun t!15 () Real)
(declare-fun t!14 () Real)
(declare-fun t!16 () Real)
(declare-fun t!17 () Real)
(declare-fun t!11 () Real)
(declare-fun t!10 () Real)
(declare-fun t!12 () Real)
(declare-fun t!13 () Real)
(declare-fun t!7 () Real)
(declare-fun t!6 () Real)
(declare-fun t!8 () Real)
(declare-fun t!9 () Real)
(declare-fun t!3 () Real)
(declare-fun t!2 () Real)
(declare-fun t!4 () Real)
(declare-fun t!5 () Real)
(declare-fun t!1 () Real)
(declare-fun t!0 () Real)
(declare-fun t!22 () Real)
(declare-fun rf!22 () Real)
(declare-fun v!4 () Int)
(declare-fun rf!3 () Real)
(declare-fun v!8 () Int)
(declare-fun v!12 () Int)
(declare-fun v!16 () Int)
(declare-fun v!20 () Int)
(declare-fun rf!7 () Real)
(declare-fun rf!11 () Real)
(declare-fun rf!15 () Real)
(declare-fun rf!19 () Real)
(assert (and true (< 4 v!23)))
(assert (< 0 t!19))
(assert (< 0 t!18))
(assert (< 0 t!20))
(assert (< 0 t!21))
(assert (< 0 t!15))
(assert (< 0 t!14))
(assert (< 0 t!16))
(assert (< 0 t!17))
(assert (< 0 t!11))
(assert (< 0 t!10))
(assert (< 0 t!12))
(assert (< 0 t!13))
(assert (< 0 t!7))
(assert (< 0 t!6))
(assert (< 0 t!8))
(assert (< 0 t!9))
(assert (< 0 t!3))
(assert (< 0 t!2))
(assert (< 0 t!4))
(assert (< 0 t!5))
(assert (< 0 t!1))
(assert (< 0 t!0))
(assert (< 0 t!22))
(assert (and (and (and (and (and (and (and (and (and (and (and (and (and (and (and (and (and (and (and (and (and (and true (< t!18 t!19)) (< t!19 t!20)) (< t!20 t!21)) (< t!14 t!15)) (< t!15 t!16)) (< t!16 t!17)) (< t!10 t!11)) (< t!11 t!12)) (< t!12 t!13)) (< t!6 t!7)) (< t!7 t!8)) (< t!8 t!9)) (< t!2 t!3)) (< t!3 t!4)) (< t!4 t!5)) (< t!0 t!1)) (< t!1 t!2)) (< t!2 t!6)) (< t!6 t!10)) (< t!10 t!14)) (< t!14 t!18)) (< t!18 t!22)))
(assert (let ((_let_0 (= 1 rf!22))) (let ((_let_1 (and true true))) (let ((_let_2 (= 4 rf!22))) (let ((_let_3 (= 0 rf!3))) (let ((_let_4 (= 8 rf!3))) (let ((_let_5 (+ v!8 1))) (let ((_let_6 (= 12 rf!3))) (let ((_let_7 (+ v!12 1))) (let ((_let_8 (= 16 rf!3))) (let ((_let_9 (+ v!16 1))) (let ((_let_10 (= 20 rf!3))) (let ((_let_11 (+ v!20 1))) (let ((_let_12 (= 0 rf!7))) (let ((_let_13 (= 8 rf!7))) (let ((_let_14 (= 12 rf!7))) (let ((_let_15 (= 16 rf!7))) (let ((_let_16 (= 20 rf!7))) (let ((_let_17 (= 0 rf!11))) (let ((_let_18 (= 8 rf!11))) (let ((_let_19 (= 12 rf!11))) (let ((_let_20 (= 16 rf!11))) (let ((_let_21 (= 20 rf!11))) (let ((_let_22 (= 0 rf!15))) (let ((_let_23 (= 8 rf!15))) (let ((_let_24 (= 12 rf!15))) (let ((_let_25 (= 16 rf!15))) (let ((_let_26 (= 20 rf!15))) (let ((_let_27 (= 0 rf!19))) (let ((_let_28 (= 8 rf!19))) (let ((_let_29 (= 12 rf!19))) (let ((_let_30 (= 16 rf!19))) (let ((_let_31 (= 20 rf!19))) (and (and (and (and (and (and (and (and (and (and (and (and (and (and (and (and (and (and (and (and (and (and (and (and (and (and (and (and (and (and (and (and (and true (=> _let_0 (and (and _let_1 (< t!1 t!22)) (= 0 v!23)))) (=> _let_2 (and (and _let_1 (< t!4 t!22)) (= v!4 v!23)))) (=> true (or _let_2 (or _let_0 false)))) (=> _let_3 (and (and _let_1 (< t!0 t!3)) (= 0 v!4)))) (=> _let_4 (and (and _let_1 (< t!8 t!3)) (= _let_5 v!4)))) (=> _let_6 (and (and _let_1 (< t!12 t!3)) (= _let_7 v!4)))) (=> _let_8 (and (and _let_1 (< t!16 t!3)) (= _let_9 v!4)))) (=> _let_10 (and (and _let_1 (< t!20 t!3)) (= _let_11 v!4)))) (=> true (or _let_10 (or _let_8 (or _let_6 (or _let_4 (or _let_3 false))))))) (=> _let_12 (and (and _let_1 (< t!0 t!7)) (= 0 v!8)))) (=> _let_13 (and (and _let_1 (< t!8 t!7)) (= _let_5 v!8)))) (=> _let_14 (and (and _let_1 (< t!12 t!7)) (= _let_7 v!8)))) (=> _let_15 (and (and _let_1 (< t!16 t!7)) (= _let_9 v!8)))) (=> _let_16 (and (and _let_1 (< t!20 t!7)) (= _let_11 v!8)))) (=> true (or _let_16 (or _let_15 (or _let_14 (or _let_13 (or _let_12 false))))))) (=> _let_17 (and (and _let_1 (< t!0 t!11)) (= 0 v!12)))) (=> _let_18 (and (and _let_1 (< t!8 t!11)) (= _let_5 v!12)))) (=> _let_19 (and (and _let_1 (< t!12 t!11)) (= _let_7 v!12)))) (=> _let_20 (and (and _let_1 (< t!16 t!11)) (= _let_9 v!12)))) (=> _let_21 (and (and _let_1 (< t!20 t!11)) (= _let_11 v!12)))) (=> true (or _let_21 (or _let_20 (or _let_19 (or _let_18 (or _let_17 false))))))) (=> _let_22 (and (and _let_1 (< t!0 t!15)) (= 0 v!16)))) (=> _let_23 (and (and _let_1 (< t!8 t!15)) (= _let_5 v!16)))) (=> _let_24 (and (and _let_1 (< t!12 t!15)) (= _let_7 v!16)))) (=> _let_25 (and (and _let_1 (< t!16 t!15)) (= _let_9 v!16)))) (=> _let_26 (and (and _let_1 (< t!20 t!15)) (= _let_11 v!16)))) (=> true (or _let_26 (or _let_25 (or _let_24 (or _let_23 (or _let_22 false))))))) (=> _let_27 (and (and _let_1 (< t!0 t!19)) (= 0 v!20)))) (=> _let_28 (and (and _let_1 (< t!8 t!19)) (= _let_5 v!20)))) (=> _let_29 (and (and _let_1 (< t!12 t!19)) (= _let_7 v!20)))) (=> _let_30 (and (and _let_1 (< t!16 t!19)) (= _let_9 v!20)))) (=> _let_31 (and (and _let_1 (< t!20 t!19)) (= _let_11 v!20)))) (=> true (or _let_31 (or _let_30 (or _let_29 (or _let_28 (or _let_27 false))))))))))))))))))))))))))))))))))))))))
(assert (let ((_let_0 (< t!19 t!20))) (let ((_let_1 (< t!15 t!16))) (let ((_let_2 (< t!11 t!12))) (let ((_let_3 (< t!7 t!8))) (let ((_let_4 (and (= 0 rf!3) true))) (let ((_let_5 (< t!0 t!8))) (let ((_let_6 (< t!3 t!8))) (let ((_let_7 (< t!0 t!12))) (let ((_let_8 (< t!3 t!12))) (let ((_let_9 (< t!0 t!16))) (let ((_let_10 (< t!3 t!16))) (let ((_let_11 (< t!0 t!20))) (let ((_let_12 (< t!3 t!20))) (let ((_let_13 (and (= 8 rf!3) true))) (let ((_let_14 (< t!8 t!0))) (let ((_let_15 (< t!3 t!0))) (let ((_let_16 (< t!8 t!12))) (let ((_let_17 (< t!8 t!16))) (let ((_let_18 (< t!8 t!20))) (let ((_let_19 (and (= 12 rf!3) true))) (let ((_let_20 (< t!12 t!0))) (let ((_let_21 (< t!12 t!8))) (let ((_let_22 (< t!12 t!16))) (let ((_let_23 (< t!12 t!20))) (let ((_let_24 (and (= 16 rf!3) true))) (let ((_let_25 (< t!16 t!0))) (let ((_let_26 (< t!16 t!8))) (let ((_let_27 (< t!16 t!12))) (let ((_let_28 (< t!16 t!20))) (let ((_let_29 (and (= 20 rf!3) true))) (let ((_let_30 (< t!20 t!0))) (let ((_let_31 (< t!20 t!8))) (let ((_let_32 (< t!20 t!12))) (let ((_let_33 (< t!20 t!16))) (let ((_let_34 (and (= 0 rf!7) true))) (let ((_let_35 (< t!7 t!12))) (let ((_let_36 (< t!7 t!16))) (let ((_let_37 (< t!7 t!20))) (let ((_let_38 (and (= 8 rf!7) true))) (let ((_let_39 (< t!7 t!0))) (let ((_let_40 (and (= 12 rf!7) true))) (let ((_let_41 (and (= 16 rf!7) true))) (let ((_let_42 (and (= 20 rf!7) true))) (let ((_let_43 (and (= 0 rf!11) true))) (let ((_let_44 (< t!11 t!8))) (let ((_let_45 (< t!11 t!16))) (let ((_let_46 (< t!11 t!20))) (let ((_let_47 (and (= 8 rf!11) true))) (let ((_let_48 (< t!11 t!0))) (let ((_let_49 (and (= 12 rf!11) true))) (let ((_let_50 (and (= 16 rf!11) true))) (let ((_let_51 (and (= 20 rf!11) true))) (let ((_let_52 (and (= 0 rf!15) true))) (let ((_let_53 (< t!15 t!8))) (let ((_let_54 (< t!15 t!12))) (let ((_let_55 (< t!15 t!20))) (let ((_let_56 (and (= 8 rf!15) true))) (let ((_let_57 (< t!15 t!0))) (let ((_let_58 (and (= 12 rf!15) true))) (let ((_let_59 (and (= 16 rf!15) true))) (let ((_let_60 (and (= 20 rf!15) true))) (let ((_let_61 (and (= 0 rf!19) true))) (let ((_let_62 (< t!19 t!8))) (let ((_let_63 (< t!19 t!12))) (let ((_let_64 (< t!19 t!16))) (let ((_let_65 (and (= 8 rf!19) true))) (let ((_let_66 (< t!19 t!0))) (let ((_let_67 (and (= 12 rf!19) true))) (let ((_let_68 (and (= 16 rf!19) true))) (let ((_let_69 (and (= 20 rf!19) true))) (and (and (and (and (and (and (and (and (and (and (and (and (and (and (and (and (and (and (and (and (and (and (and (and (and (and (and (and (and (and (and (and (and (and (and (and (and (and (and (and (and (and (and (and (and (and (and (and (and (and (and (and (and (and (and (and (and (and (and (and (and (and (and (and (and (and (and (and (and (and (and (and (and (and (and (and (and (and (and (and (and (and (and (and (and (and (and (and (and (and (and (and (and (and (and (and (and (and (and (and (and (and true (=> (and (and (= 1 rf!22) true) (< t!1 t!4)) (< t!22 t!4))) (=> (and (and (= 4 rf!22) true) (< t!4 t!1)) (< t!22 t!1))) (=> (and _let_4 _let_5) _let_6)) (=> (and _let_4 _let_7) _let_8)) (=> (and _let_4 _let_9) _let_10)) (=> (and _let_4 _let_11) _let_12)) (=> (and _let_13 _let_14) _let_15)) (=> (and _let_13 _let_16) _let_8)) (=> (and _let_13 _let_17) _let_10)) (=> (and _let_13 _let_18) _let_12)) (=> (and _let_19 _let_20) _let_15)) (=> (and _let_19 _let_21) _let_6)) (=> (and _let_19 _let_22) _let_10)) (=> (and _let_19 _let_23) _let_12)) (=> (and _let_24 _let_25) _let_15)) (=> (and _let_24 _let_26) _let_6)) (=> (and _let_24 _let_27) _let_8)) (=> (and _let_24 _let_28) _let_12)) (=> (and _let_29 _let_30) _let_15)) (=> (and _let_29 _let_31) _let_6)) (=> (and _let_29 _let_32) _let_8)) (=> (and _let_29 _let_33) _let_10)) (=> (and _let_34 _let_5) _let_3)) (=> (and _let_34 _let_7) _let_35)) (=> (and _let_34 _let_9) _let_36)) (=> (and _let_34 _let_11) _let_37)) (=> (and _let_38 _let_14) _let_39)) (=> (and _let_38 _let_16) _let_35)) (=> (and _let_38 _let_17) _let_36)) (=> (and _let_38 _let_18) _let_37)) (=> (and _let_40 _let_20) _let_39)) (=> (and _let_40 _let_21) _let_3)) (=> (and _let_40 _let_22) _let_36)) (=> (and _let_40 _let_23) _let_37)) (=> (and _let_41 _let_25) _let_39)) (=> (and _let_41 _let_26) _let_3)) (=> (and _let_41 _let_27) _let_35)) (=> (and _let_41 _let_28) _let_37)) (=> (and _let_42 _let_30) _let_39)) (=> (and _let_42 _let_31) _let_3)) (=> (and _let_42 _let_32) _let_35)) (=> (and _let_42 _let_33) _let_36)) (=> (and _let_43 _let_5) _let_44)) (=> (and _let_43 _let_7) _let_2)) (=> (and _let_43 _let_9) _let_45)) (=> (and _let_43 _let_11) _let_46)) (=> (and _let_47 _let_14) _let_48)) (=> (and _let_47 _let_16) _let_2)) (=> (and _let_47 _let_17) _let_45)) (=> (and _let_47 _let_18) _let_46)) (=> (and _let_49 _let_20) _let_48)) (=> (and _let_49 _let_21) _let_44)) (=> (and _let_49 _let_22) _let_45)) (=> (and _let_49 _let_23) _let_46)) (=> (and _let_50 _let_25) _let_48)) (=> (and _let_50 _let_26) _let_44)) (=> (and _let_50 _let_27) _let_2)) (=> (and _let_50 _let_28) _let_46)) (=> (and _let_51 _let_30) _let_48)) (=> (and _let_51 _let_31) _let_44)) (=> (and _let_51 _let_32) _let_2)) (=> (and _let_51 _let_33) _let_45)) (=> (and _let_52 _let_5) _let_53)) (=> (and _let_52 _let_7) _let_54)) (=> (and _let_52 _let_9) _let_1)) (=> (and _let_52 _let_11) _let_55)) (=> (and _let_56 _let_14) _let_57)) (=> (and _let_56 _let_16) _let_54)) (=> (and _let_56 _let_17) _let_1)) (=> (and _let_56 _let_18) _let_55)) (=> (and _let_58 _let_20) _let_57)) (=> (and _let_58 _let_21) _let_53)) (=> (and _let_58 _let_22) _let_1)) (=> (and _let_58 _let_23) _let_55)) (=> (and _let_59 _let_25) _let_57)) (=> (and _let_59 _let_26) _let_53)) (=> (and _let_59 _let_27) _let_54)) (=> (and _let_59 _let_28) _let_55)) (=> (and _let_60 _let_30) _let_57)) (=> (and _let_60 _let_31) _let_53)) (=> (and _let_60 _let_32) _let_54)) (=> (and _let_60 _let_33) _let_1)) (=> (and _let_61 _let_5) _let_62)) (=> (and _let_61 _let_7) _let_63)) (=> (and _let_61 _let_9) _let_64)) (=> (and _let_61 _let_11) _let_0)) (=> (and _let_65 _let_14) _let_66)) (=> (and _let_65 _let_16) _let_63)) (=> (and _let_65 _let_17) _let_64)) (=> (and _let_65 _let_18) _let_0)) (=> (and _let_67 _let_20) _let_66)) (=> (and _let_67 _let_21) _let_62)) (=> (and _let_67 _let_22) _let_64)) (=> (and _let_67 _let_23) _let_0)) (=> (and _let_68 _let_25) _let_66)) (=> (and _let_68 _let_26) _let_62)) (=> (and _let_68 _let_27) _let_63)) (=> (and _let_68 _let_28) _let_0)) (=> (and _let_69 _let_30) _let_66)) (=> (and _let_69 _let_31) _let_62)) (=> (and _let_69 _let_32) _let_63)) (=> (and _let_69 _let_33) _let_64)))))))))))))))))))))))))))))))))))))))))))))))))))))))))))))))))))))))))
(assert (and (and true (distinct t!1 t!4)) (distinct t!0 t!8 t!12 t!16 t!20)))
(check-sat)
